c ren 1 -> 1
c ren 2 -> 2
c ren 3 -> 3
c ren 4 -> 4
c ren 5 -> 5
c ren 6 -> 6
c ren 7 -> 7
c ren 8 -> 8
c ren 9 -> 9
c ren 10 -> 10
c ren 11 -> 11
c ren 12 -> 12
c ren 13 -> 13
c ren 14 -> 14
c ren 15 -> 15
c ren 16 -> 16
c ren 17 -> 17
c ren 18 -> 18
c ren 19 -> 19
c ren 20 -> 20
c ren 21 -> 21
c ren 22 -> 22
c ren 23 -> 23
c ren 24 -> 24
c ren 25 -> 25
c ren 26 -> 26
c ren 27 -> 27
c ren 28 -> 28
c ren 29 -> 29
c ren 30 -> 30
c ren 31 -> 31
c ren 32 -> 32
c ren 33 -> 33
c ren 34 -> 34
c ren 35 -> 35
c ren 36 -> 36
c ren 37 -> 37
c ren 38 -> 38
c ren 39 -> 39
c ren 40 -> 40
c ren 41 -> 41
c ren 42 -> 42
c ren 43 -> 43
c ren 44 -> 44
c ren 45 -> 45
c ren 46 -> 46
c ren 47 -> 47
c ren 48 -> 48
c ren 49 -> 49
c ren 50 -> 50
c ren 51 -> 51
c ren 52 -> 52
c ren 53 -> 53
c ren 54 -> 54
c ren 55 -> 55
c ren 56 -> 56
c ren 57 -> 57
c ren 58 -> 58
c ren 59 -> 59
c ren 74 -> 60
c ren 85 -> 61
c ren 87 -> 62
c ren 88 -> 63
c ren 90 -> 64
c ren 91 -> 65
c ren 94 -> 66
c ren 95 -> 67
c ren 117 -> 68
c ren 124 -> 69
c ren 127 -> 70
c ren 128 -> 71
c ren 129 -> 72
c ren 166 -> 73
c ren 179 -> 74
c ren 187 -> 75
c ren 189 -> 76
c ren 190 -> 77
c ren 215 -> 78
c ren 216 -> 79
c ren 217 -> 80
c ren 221 -> 81
c ren 222 -> 82
c ren 226 -> 83
c ren 232 -> 84
c ren 233 -> 85
c ren 246 -> 86
c ren 257 -> 87
c ren 261 -> 88
c ren 280 -> 89
c ren 288 -> 90
c ren 293 -> 91
c ren 296 -> 92
c ren 302 -> 93
c ren 303 -> 94
c ren 305 -> 95
c ren 306 -> 96
c ren 310 -> 97
c ren 311 -> 98
c ren 314 -> 99
c ren 315 -> 100
c ren 319 -> 101
c ren 320 -> 102
c ren 322 -> 103
c ren 323 -> 104
p cnf 104 484
a 1 3 6 8 9 12 13 14 15 16 17 18 19 20 21 22 23 24 25 26 27 28 29 30 31 32 33 34 35 36 37 38 39 40 41 42 43 44 45 46 47 48 49 50 51 52 53 54 55 56 57 0
d 2 1 3 6 8 9 12 13 14 15 16 17 18 19 20 21 22 23 24 25 26 27 28 29 30 31 32 33 34 0
d 4 1 3 6 8 9 12 13 14 15 16 17 18 19 20 21 22 23 24 25 26 27 28 29 30 31 32 33 34 0
d 5 1 3 6 8 9 12 13 14 15 16 17 18 19 20 21 22 23 24 25 26 27 28 29 30 31 32 33 34 0
d 7 1 3 6 8 9 12 13 14 15 16 17 18 19 20 21 22 23 24 25 26 27 28 29 30 31 32 33 34 0
d 10 1 3 6 8 9 12 13 14 15 16 17 18 19 20 21 22 23 24 25 26 27 28 29 30 31 32 33 34 0
d 11 1 3 6 8 9 12 13 14 15 16 17 18 19 20 21 22 23 24 25 26 27 28 29 30 31 32 33 34 0
d 58 12 13 14 15 16 17 18 19 20 21 22 23 24 25 26 27 28 29 30 31 32 33 34 0
d 59 35 36 37 38 39 40 41 42 43 44 45 46 47 48 49 50 51 52 53 54 55 56 57 0
e 60 61 62 63 64 65 66 67 68 69 70 71 72 73 74 75 76 77 78 79 80 81 82 83 84 85 86 87 88 89 90 91 92 93 94 95 96 97 98 99 100 101 102 103 104 0
28 29 30 -31 51 52 53 -54 60 0
28 29 -30 -31 51 52 -53 -54 60 0
-28 -29 30 31 -51 -52 53 54 60 0
28 29 -30 31 51 52 -53 54 60 0
28 -29 30 31 51 -52 53 54 60 0
-28 -29 -30 31 -51 -52 -53 54 60 0
28 -29 -30 31 51 -52 -53 54 60 0
-6 -12 24 -30 79 0
-28 29 30 31 -51 52 53 54 60 0
-28 -29 -30 -31 -51 -52 -53 -54 60 0
28 -29 -30 -31 51 -52 -53 -54 60 0
-28 29 30 -31 -51 52 53 -54 60 0
-27 -30 49 -50 -58 59 -73 74 -86 -87 -89 -90 -91 -92 93 94 95 96 97 98 99 100 101 102 103 104 0
12 49 50 -58 59 -86 -87 -89 -90 -91 -92 94 95 96 97 98 100 101 102 103 104 0
-28 29 -30 31 -51 52 -53 54 60 0
-19 27 30 -49 -50 -58 59 -73 -74 -86 -87 -89 -90 -91 -92 93 94 95 96 97 98 100 101 102 103 104 0
28 29 30 31 51 52 53 54 60 0
-26 27 30 -49 -50 -58 59 -73 -74 -86 -87 -89 -90 -91 -92 93 94 95 96 97 98 100 101 102 103 104 0
-28 -29 30 -31 -51 -52 53 -54 60 0
-12 -26 27 30 -49 50 -58 59 74 -86 -87 -89 -90 -91 -92 93 94 95 96 97 98 99 100 101 102 103 104 0
28 -29 30 -31 51 -52 53 -54 60 0
-12 -26 30 -49 50 -58 59 73 -86 -87 -89 -90 -91 -92 93 94 95 96 97 98 100 101 102 103 104 0
30 -79 0
-28 29 -30 -31 -51 52 -53 -54 60 0
6 -12 24 -25 30 78 0
8 -12 -19 24 30 78 0
-12 -26 -27 30 -49 50 -58 59 -74 -86 -87 -89 -90 -91 -92 93 94 95 96 97 98 100 101 102 103 104 0
27 28 -51 -75 0
-19 -27 30 -49 -50 -58 59 -73 74 -86 -87 -89 -90 -91 -92 93 94 95 96 97 98 99 100 101 102 103 104 0
-27 28 51 -73 -74 -75 0
12 -79 0
-27 -28 -51 -74 -75 0
32 -33 34 55 -56 57 61 0
19 26 49 50 -58 59 73 -86 -87 -89 -90 -91 -92 93 94 95 96 97 98 100 101 102 103 104 0
-32 -33 34 -55 -56 57 61 0
27 -76 0
-32 33 34 -55 56 57 61 0
32 33 -34 55 56 -57 61 0
24 25 26 27 47 48 49 50 -58 59 -60 -61 -68 -69 -70 71 72 0
-32 33 -34 -55 56 -57 61 0
24 25 -26 -27 47 48 -49 -50 -58 59 -60 -61 -68 -69 -70 71 72 0
32 33 34 55 56 57 61 0
24 -25 26 27 47 -48 49 50 -58 59 -60 -61 -68 -69 -70 71 72 0
-32 -33 -34 -55 -56 -57 61 0
24 25 26 -27 47 48 49 -50 -58 59 -60 -61 -68 -69 -70 71 72 0
24 -25 -26 27 47 -48 -49 50 -58 59 -60 -61 -68 -69 -70 71 72 0
32 -33 -34 55 -56 -57 61 0
-24 25 26 -27 -47 48 49 -50 -58 59 -60 -61 -68 -69 -70 71 72 0
-24 25 26 27 -47 48 49 50 -58 59 -60 -61 -68 -69 -70 71 72 0
-24 25 -26 -27 -47 48 -49 -50 -58 59 -60 -61 -68 -69 -70 71 72 0
24 -25 -26 -27 47 -48 -49 -50 -58 59 -60 -61 -68 -69 -70 71 72 0
-24 25 -26 27 -47 48 -49 50 -58 59 -60 -61 -68 -69 -70 71 72 0
-24 -25 26 -27 -47 -48 49 -50 -58 59 -60 -61 -68 -69 -70 71 72 0
-24 -25 26 27 -47 -48 49 50 -58 59 -60 -61 -68 -69 -70 71 72 0
24 25 -26 27 47 48 -49 50 -58 59 -60 -61 -68 -69 -70 71 72 0
-24 -25 -26 -27 -47 -48 -49 -50 -58 59 -60 -61 -68 -69 -70 71 72 0
-24 -25 -26 27 -47 -48 -49 50 -58 59 -60 -61 -68 -69 -70 71 72 0
24 -25 26 -27 47 -48 49 -50 -58 59 -60 -61 -68 -69 -70 71 72 0
-35 -62 0
12 -62 0
-12 35 62 0
35 -63 0
-12 -63 0
12 -35 63 0
-63 -68 0
15 16 17 18 19 38 39 40 41 42 62 63 64 65 66 67 68 0
-36 -64 0
13 -64 0
-13 36 64 0
36 -65 0
-13 -65 0
13 -36 65 0
-65 -68 0
15 16 17 18 -19 38 39 40 41 -42 62 63 64 65 66 67 68 0
15 16 17 -18 19 38 39 40 -41 42 62 63 64 65 66 67 68 0
-37 -66 0
14 -66 0
-14 37 66 0
37 -67 0
-14 -67 0
14 -37 67 0
-67 -68 0
15 16 17 -18 -19 38 39 40 -41 -42 62 63 64 65 66 67 68 0
15 16 -17 18 -19 38 39 -40 41 -42 62 63 64 65 66 67 68 0
15 16 -17 -18 -19 38 39 -40 -41 -42 62 63 64 65 66 67 68 0
-15 -16 17 18 19 -38 -39 40 41 42 62 63 64 65 66 67 68 0
15 16 -17 -18 19 38 39 -40 -41 42 62 63 64 65 66 67 68 0
15 -16 17 18 19 38 -39 40 41 42 62 63 64 65 66 67 68 0
-15 -16 17 -18 19 -38 -39 40 -41 42 62 63 64 65 66 67 68 0
-15 -16 17 18 -19 -38 -39 40 41 -42 62 63 64 65 66 67 68 0
15 -16 17 18 -19 38 -39 40 41 -42 62 63 64 65 66 67 68 0
-15 -16 -17 18 19 -38 -39 -40 41 42 62 63 64 65 66 67 68 0
-15 -16 17 -18 -19 -38 -39 40 -41 -42 62 63 64 65 66 67 68 0
15 -16 17 -18 19 38 -39 40 -41 42 62 63 64 65 66 67 68 0
-15 -16 -17 -18 19 -38 -39 -40 -41 42 62 63 64 65 66 67 68 0
15 -16 -17 18 19 38 -39 -40 41 42 62 63 64 65 66 67 68 0
-64 -68 0
15 -16 -17 -18 19 38 -39 -40 -41 42 62 63 64 65 66 67 68 0
-15 16 -17 -18 -19 -38 39 -40 -41 -42 62 63 64 65 66 67 68 0
15 -16 -17 18 -19 38 -39 -40 41 -42 62 63 64 65 66 67 68 0
15 -16 -17 -18 -19 38 -39 -40 -41 -42 62 63 64 65 66 67 68 0
-15 16 17 18 -19 -38 39 40 41 -42 62 63 64 65 66 67 68 0
-62 -68 0
-15 16 17 -18 -19 -38 39 40 -41 -42 62 63 64 65 66 67 68 0
-15 16 17 -18 19 -38 39 40 -41 42 62 63 64 65 66 67 68 0
-15 16 -17 18 19 -38 39 -40 41 42 62 63 64 65 66 67 68 0
-15 -16 -17 -18 -19 -38 -39 -40 -41 -42 62 63 64 65 66 67 68 0
-15 16 -17 18 -19 -38 39 -40 41 -42 62 63 64 65 66 67 68 0
15 -16 17 -18 -19 38 -39 40 -41 -42 62 63 64 65 66 67 68 0
15 16 -17 18 19 38 39 -40 41 42 62 63 64 65 66 67 68 0
-15 16 17 18 19 -38 39 40 41 42 62 63 64 65 66 67 68 0
-15 16 -17 -18 19 -38 39 -40 -41 42 62 63 64 65 66 67 68 0
-15 -16 -17 18 -19 -38 -39 -40 41 -42 62 63 64 65 66 67 68 0
-66 -68 0
20 -21 43 -44 69 0
-20 -21 -43 -44 69 0
-20 21 -43 44 69 0
20 21 43 44 69 0
-22 -45 70 0
22 45 70 0
-46 -71 0
23 -71 0
46 -72 0
-23 -72 0
24 25 26 27 47 48 49 50 58 -59 -60 -61 -68 -69 -70 71 72 0
24 25 26 -27 47 48 49 -50 58 -59 -60 -61 -68 -69 -70 71 72 0
24 25 -26 27 47 48 -49 50 58 -59 -60 -61 -68 -69 -70 71 72 0
-24 25 -26 -27 -47 48 -49 -50 58 -59 -60 -61 -68 -69 -70 71 72 0
-24 -25 26 27 -47 -48 49 50 58 -59 -60 -61 -68 -69 -70 71 72 0
24 25 -26 -27 47 48 -49 -50 58 -59 -60 -61 -68 -69 -70 71 72 0
24 -25 26 27 47 -48 49 50 58 -59 -60 -61 -68 -69 -70 71 72 0
-24 -25 -26 27 -47 -48 -49 50 58 -59 -60 -61 -68 -69 -70 71 72 0
24 -25 26 -27 47 -48 49 -50 58 -59 -60 -61 -68 -69 -70 71 72 0
24 -25 -26 27 47 -48 -49 50 58 -59 -60 -61 -68 -69 -70 71 72 0
24 -25 -26 -27 47 -48 -49 -50 58 -59 -60 -61 -68 -69 -70 71 72 0
-24 25 26 27 -47 48 49 50 58 -59 -60 -61 -68 -69 -70 71 72 0
-24 -25 -26 -27 -47 -48 -49 -50 58 -59 -60 -61 -68 -69 -70 71 72 0
-24 25 -26 27 -47 48 -49 50 58 -59 -60 -61 -68 -69 -70 71 72 0
-24 25 26 -27 -47 48 49 -50 58 -59 -60 -61 -68 -69 -70 71 72 0
-24 -25 26 -27 -47 -48 49 -50 58 -59 -60 -61 -68 -69 -70 71 72 0
12 -73 0
-5 9 -12 16 -22 73 0
-5 -9 -12 22 -26 -39 -40 90 0
5 -9 -12 22 -26 73 0
-5 -9 16 -73 0
-5 9 -12 22 -26 73 0
5 -9 12 -98 0
5 9 26 -73 0
-12 -16 22 -26 73 0
-5 9 16 39 -40 90 0
5 9 -97 0
-5 -12 -16 22 -26 -39 -40 90 0
-5 -22 39 -40 90 0
5 -9 16 -22 -98 0
28 -76 0
-27 -28 51 -74 75 0
-5 26 39 -40 90 0
19 26 27 49 -50 -58 59 -73 -74 -86 -87 -89 -90 -91 -92 93 94 95 96 97 98 100 101 102 103 104 0
-27 28 -51 -73 -74 75 0
2 3 -73 74 -100 0
-1 2 3 -4 74 0
-2 -3 -12 -18 74 0
2 -3 23 -99 0
2 3 -12 -18 74 0
1 2 3 4 74 0
1 4 -12 -23 74 0
1 -2 -3 4 74 0
-2 -3 -73 74 -100 0
-1 4 18 41 91 0
12 41 91 0
1 -4 18 41 91 0
2 -3 12 -74 0
-1 -4 -41 -73 74 91 0
-18 -41 -73 74 91 0
-1 4 18 -74 0
-2 3 12 -74 0
1 -4 12 -74 0
-1 4 12 -74 0
5 9 16 -73 0
-5 9 12 -98 0
74 -76 0
28 29 77 0
-12 19 26 -27 49 50 -58 59 -74 -86 -87 -89 -90 -91 -92 93 94 95 96 97 98 100 101 102 103 104 0
29 74 77 0
12 -51 -75 0
-12 -27 -28 -29 -74 76 0
-28 -51 -73 74 75 0
51 73 75 0
12 77 0
27 29 77 0
-2 3 23 -74 0
2 -3 23 -74 0
-51 73 -75 0
-1 -2 -3 -4 74 0
-2 3 23 -99 0
-12 -27 -28 -74 -77 0
-12 27 -30 49 50 -58 59 74 -86 -87 -89 -90 -91 -92 93 94 95 96 97 98 99 100 101 102 103 104 0
5 26 39 40 90 0
5 -9 16 39 40 90 0
28 51 74 75 0
-12 -29 -77 0
-12 -29 31 -58 78 79 80 81 82 83 84 85 0
19 26 27 49 50 -58 59 74 -86 -87 -89 -90 -91 -92 93 94 95 96 97 98 99 100 101 102 103 104 0
11 52 53 -54 -75 -76 -84 86 0
11 52 53 -54 -75 -77 -78 86 0
11 52 53 -54 73 -75 -84 86 0
11 -52 53 -54 -73 -75 76 77 -84 86 0
11 52 53 -54 -75 -76 -80 86 0
11 -52 53 -54 -73 -75 76 77 -80 86 0
11 -52 53 -54 -73 -75 76 77 -78 86 0
11 52 53 -54 -75 -76 -83 86 0
11 -52 53 -54 -73 -75 76 77 -82 86 0
11 52 53 -54 73 -75 -78 86 0
11 52 53 -54 73 -75 -83 86 0
11 -52 53 -54 -73 -75 76 77 -81 86 0
11 -52 53 -54 -73 -75 76 77 -83 86 0
11 -12 -31 52 53 -54 73 -75 86 0
11 52 53 -54 73 -75 -85 86 0
11 -52 53 -54 -73 -75 76 77 -85 86 0
11 31 52 53 54 73 -75 78 79 80 81 82 83 84 85 86 0
-11 52 -53 -54 73 -75 -79 86 0
-11 -52 -53 -54 -73 -75 76 77 -84 86 0
11 31 -52 53 54 -73 -75 76 77 78 79 80 81 82 83 84 85 86 0
-11 -52 -53 -54 -73 -75 76 77 -78 86 0
11 52 53 -54 73 -75 -80 86 0
1 11 -12 -15 31 -58 78 79 80 81 83 84 85 0
-28 51 -73 74 -75 0
12 51 75 0
-6 8 -12 19 -25 -78 0
-8 19 -24 -30 78 0
-11 15 31 32 -58 78 79 80 82 84 85 0
6 8 19 25 -78 0
11 52 53 -54 73 -75 -81 86 0
-6 -8 -12 -19 -25 -78 0
4 -12 -14 15 31 -58 78 79 80 83 84 85 0
6 -12 -24 -25 -30 78 0
-26 -27 30 -49 -50 -58 59 -73 74 -86 -87 -89 -90 -91 -92 93 94 95 96 97 98 99 100 101 102 103 104 0
75 -86 0
11 -52 53 -54 -73 -75 76 77 -79 86 0
-6 12 78 0
-11 52 -53 -54 73 -75 -78 86 0
-3 -11 15 31 -58 78 79 80 82 84 85 0
-11 52 -53 -54 73 -75 -84 86 0
-6 24 25 30 78 0
-12 -19 -27 30 -49 50 -58 59 -74 -86 -87 -89 -90 -91 -92 93 94 95 96 97 98 100 101 102 103 104 0
-12 -19 27 30 -49 50 -58 59 74 -86 -87 -89 -90 -91 -92 93 94 95 96 97 98 99 100 101 102 103 104 0
-12 24 -30 -78 0
27 -30 49 -50 -58 59 -73 -74 -86 -87 -89 -90 -91 -92 93 94 95 96 97 98 100 101 102 103 104 0
8 -12 -24 30 80 0
-6 -24 25 -30 78 0
-8 19 24 30 78 0
-12 -24 30 -78 0
-30 -80 0
-12 -19 30 -49 50 -58 59 73 -86 -87 -89 -90 -91 -92 93 94 95 96 97 98 100 101 102 103 104 0
11 52 53 -54 73 -75 -82 86 0
6 -8 -12 -19 25 -78 0
-24 -79 0
6 -79 0
-5 12 39 -40 90 0
-30 49 50 -58 59 73 -86 -87 -89 -90 -91 -92 93 94 95 96 97 98 100 101 102 103 104 0
-8 -80 0
24 -80 0
12 -80 0
-12 -14 31 -33 -58 78 79 80 81 83 84 0
5 -12 -17 31 -34 -58 78 79 80 81 82 83 84 85 0
-11 52 -53 -54 73 -75 -82 86 0
1 -12 -14 -15 81 0
-11 52 -53 -54 73 -75 -80 86 0
-1 12 82 0
-1 -81 0
-1 -4 14 33 -35 -36 -37 -38 89 0
15 -81 0
-12 -14 -82 0
1 -82 0
-1 -4 -14 20 -35 -36 -37 -38 88 89 0
-1 -11 31 32 -58 78 79 80 82 84 85 0
-5 17 31 34 -58 78 79 80 81 82 83 85 0
1 4 14 33 -35 -36 37 38 89 0
-2 -4 12 -58 78 82 85 0
3 -12 -32 -33 83 0
-1 4 14 33 -35 -36 37 -38 89 0
-3 12 85 0
-3 -83 0
-11 -12 -31 52 -53 -54 73 -75 86 0
-4 -12 -15 31 -58 78 79 80 81 82 83 84 85 0
1 -4 -12 14 20 -33 -35 36 -37 38 89 0
-12 -33 -85 0
17 34 -84 0
2 -12 31 32 -33 -58 78 79 80 81 82 84 0
-11 31 52 -53 54 73 -75 78 79 80 81 82 83 84 85 86 0
3 11 -12 31 -32 -58 78 79 80 81 82 83 84 0
-9 -12 -17 84 0
11 52 53 -54 -75 -76 -78 86 0
9 -12 17 -34 84 0
-2 -4 31 -58 78 79 80 81 82 83 84 85 0
11 52 53 -54 -75 -76 -79 86 0
11 -31 -52 53 -54 -73 -75 76 77 86 0
8 -11 31 -58 78 79 80 81 82 83 84 85 0
11 52 53 -54 -75 -76 -82 86 0
-9 17 -84 0
11 52 53 -54 -75 -76 -81 86 0
11 -31 52 53 -54 -75 -76 86 0
12 -76 0
11 52 53 -54 -75 -76 -85 86 0
3 -85 0
-3 33 85 0
-11 -52 -53 -54 -73 -75 76 77 -79 86 0
29 -76 0
-11 -31 -52 -53 -54 -73 -75 76 77 86 0
32 -83 0
11 31 52 53 54 -75 -76 78 79 80 81 82 83 84 85 86 0
-11 -52 -53 -54 -73 -75 76 77 -85 86 0
-5 -7 17 31 -58 78 79 80 81 82 83 84 85 0
-11 52 -53 -54 -75 -76 -84 86 0
-11 -52 -53 -54 -73 -75 76 77 -83 86 0
-5 12 -58 78 82 85 0
-11 52 -53 -54 -75 -76 -78 86 0
-11 -52 -53 -54 -73 -75 76 77 -82 86 0
-2 -12 31 -32 -58 78 79 80 81 82 83 84 85 0
-11 52 -53 -54 -75 -76 -79 86 0
-11 -52 -53 -54 -73 -75 76 77 -81 86 0
12 -84 0
-11 52 -53 -54 -75 -76 -80 86 0
-11 -52 -53 -54 -73 -75 76 77 -80 86 0
-11 52 -53 -54 -75 -76 -81 86 0
-11 52 -53 -54 -75 -76 -83 86 0
-11 -31 52 -53 -54 -75 -76 86 0
-11 52 -53 -54 -75 -76 -85 86 0
-11 31 52 -53 54 -75 -76 78 79 80 81 82 83 84 85 86 0
11 52 53 -54 -75 -77 -79 86 0
11 52 53 -54 -75 -77 -84 86 0
-11 52 -53 -54 -75 -76 -82 86 0
11 52 53 -54 -75 -77 -81 86 0
11 52 53 -54 -75 -77 -80 86 0
11 52 53 -54 73 -75 -79 86 0
-2 3 9 55 -56 57 87 0
11 52 53 -54 -75 -77 -85 86 0
-2 -3 9 -55 -56 57 87 0
11 52 53 -54 -75 -77 -82 86 0
2 -3 9 -55 56 57 87 0
2 3 -9 55 56 -57 87 0
11 -12 -31 52 53 -54 -75 -77 86 0
2 -3 -9 -55 56 -57 87 0
-11 52 -53 -54 -75 -77 -84 86 0
2 3 9 55 56 57 87 0
-11 52 -53 -54 -75 -77 -78 86 0
-2 -3 -9 -55 -56 -57 87 0
11 12 52 53 54 -75 78 82 85 86 0
-11 52 -53 -54 -75 -77 -80 86 0
-2 3 -9 55 -56 -57 87 0
-11 52 -53 -54 -75 -77 -83 86 0
-11 52 -53 -54 -75 -77 -82 86 0
-11 -12 -31 52 -53 -54 -75 -77 86 0
-11 52 -53 -54 -75 -77 -81 86 0
-11 52 -53 -54 -75 -77 -85 86 0
-11 31 52 -53 54 -75 -77 78 79 80 81 82 83 84 85 86 0
11 31 52 53 54 -75 -77 78 79 80 81 82 83 84 85 86 0
-16 -22 -73 0
11 52 53 -54 -75 -77 -83 86 0
-12 -16 -97 0
-11 52 -53 -54 -75 -77 -79 86 0
-1 -4 14 -20 -35 -36 -37 -38 88 89 0
-13 -88 0
-5 9 16 -22 -98 0
22 26 -73 0
-11 52 -53 -54 73 -75 -85 86 0
-5 9 16 26 -98 0
-16 26 -73 0
-1 -4 -20 -33 -35 -36 -37 -38 88 89 0
1 -4 14 -20 -35 -36 -37 38 88 89 0
-1 -4 -12 14 20 -33 -35 36 -37 -38 89 0
33 -83 0
12 -88 0
1 4 -12 -14 -20 33 -35 36 37 38 89 0
1 4 -14 20 -35 -36 37 38 88 89 0
-1 4 -14 20 -35 -36 37 -38 88 89 0
-12 13 -33 88 0
1 4 -20 -33 -35 -36 37 38 88 89 0
-12 -20 -33 -94 0
1 4 -35 36 37 38 -88 89 0
-1 4 -20 -33 -35 -36 37 -38 88 89 0
1 -4 -14 -33 -35 -36 -37 38 88 89 0
1 4 -14 -33 -35 -36 37 38 88 89 0
12 -93 0
-1 4 -35 36 37 -38 -88 89 0
-1 -4 -12 -14 -20 33 -35 36 -37 -38 89 0
1 4 14 -20 -35 -36 37 38 88 89 0
1 -4 -35 36 -37 38 -88 89 0
-1 -4 -35 36 -37 -38 -88 89 0
1 -4 -20 -33 -35 -36 -37 38 88 89 0
-1 4 14 -20 -35 -36 37 -38 88 89 0
-14 33 -93 0
35 -89 0
-1 4 -14 -33 -35 -36 37 -38 88 89 0
-1 4 -12 -14 -20 33 -35 36 37 -38 89 0
-14 20 -93 0
-12 14 -20 -94 0
-1 -4 12 -35 -36 -37 -38 89 0
-1 -4 20 33 -35 -36 -37 -38 88 89 0
-1 4 -12 14 20 -33 -35 36 37 -38 89 0
1 -4 12 -35 -36 -37 38 89 0
-12 14 -33 -94 0
-1 4 12 -35 -36 37 -38 89 0
1 4 12 -35 -36 37 38 89 0
-5 -9 -97 0
-5 -9 26 -73 0
5 -12 -16 22 -26 -39 40 90 0
5 -9 16 26 -98 0
5 9 -12 22 -26 -39 40 90 0
1 4 -12 14 20 -33 -35 36 37 38 89 0
-12 22 -26 -97 0
1 4 20 33 -35 -36 37 38 88 89 0
1 -4 20 33 -35 -36 -37 38 88 89 0
20 33 -93 0
-1 4 20 33 -35 -36 37 -38 88 89 0
14 33 -88 0
1 -4 14 33 -35 -36 -37 38 89 0
73 -99 0
-12 -18 -23 74 0
1 -4 18 -74 0
41 -74 91 0
-74 -99 0
-11 52 -53 -54 73 -75 -83 86 0
-11 52 -53 -54 73 -75 -81 86 0
5 -9 -12 16 -22 73 0
-8 -42 92 0
8 42 92 0
-5 -9 -22 -73 0
14 -81 0
-12 13 -14 88 0
-6 -10 11 31 -58 78 79 80 81 82 83 84 85 0
-1 -4 -14 -33 -35 -36 -37 -38 88 89 0
-43 -93 0
-5 10 17 31 -58 78 79 80 81 82 83 84 85 0
1 -4 -14 20 -35 -36 -37 38 88 89 0
43 -94 0
-1 14 82 0
5 12 39 40 90 0
-44 -95 0
7 -95 0
44 -96 0
-7 -96 0
28 -51 74 -75 0
5 9 -22 -73 0
5 -22 39 40 90 0
-45 -97 0
45 -98 0
6 8 12 -78 0
-23 -73 74 -100 0
1 4 -41 -73 74 91 0
-46 -99 0
41 73 91 0
-1 -4 -12 -23 74 0
46 -100 0
-8 12 78 0
-47 -101 0
10 -101 0
47 -102 0
-10 -102 0
-48 -103 0
6 -103 0
48 -104 0
-6 -104 0
-12 -27 -30 49 50 -58 59 -74 -86 -87 -89 -90 -91 -92 93 94 95 96 97 98 100 101 102 103 104 0
27 -28 51 -73 -75 0
27 28 51 75 0
27 -28 -51 -73 75 0
8 -12 -19 -24 -30 78 0
19 26 -27 49 -50 -58 59 -73 74 -86 -87 -89 -90 -91 -92 93 94 95 96 97 98 99 100 101 102 103 104 0
12 -83 0
-12 -13 -14 20 31 -58 78 79 80 81 83 84 85 0
12 -81 0
-11 12 52 -53 54 -75 78 82 85 86 0
-10 12 -58 78 82 85 0
-10 -12 -17 31 -58 78 79 80 81 82 83 84 85 0
-11 31 -52 -53 54 -73 -75 76 77 78 79 80 81 82 83 84 85 86 0
5 -10 31 -58 78 79 80 81 82 83 84 85 0
1 -4 -12 -14 -20 33 -35 36 -37 38 89 0
-1 -3 -11 31 -58 78 79 80 82 84 85 0
-5 -9 31 34 -58 78 79 80 81 82 83 84 85 0
-12 -13 -20 31 -33 -58 78 79 80 81 82 83 84 0
9 -17 -84 0
-11 12 -58 78 82 85 0
12 13 14 15 16 17 18 19 20 21 22 23 24 25 26 27 28 29 30 31 32 33 34 58 0
